(assert (forall ((pkt_0_4_6_0  Int  )(state_group_0_state_0_5_7_0  Int  )(state_group_0_state_1_6_8_0  Int  )) (let ((_n0 state_group_0_state_1_6_8_0 ))
(let ((_n1 state_group_0_state_0_5_7_0 ))
(let ((_n2 true ))
(let ((_n3 (+   _n1   (ite  _n2  1 0) ) ))
(let ((_n4 (ite (=  _n0  0)  _n3   _n1  ) ))
(let ((_n5 999 ))
(let ((_n6 pkt_0_4_6_0 ))
(let ((_n7 (+   _n1   _n6 ) ))
(let ((_n8 (=   _n7   _n5 ) ))
(let ((_n9 false ))
(let ((_n10 (ite (=  _n7  999)  (ite  _n9  1 0)   _n0  ) ))
(let ((_n11 (=   _n10   (ite  _n9  1 0) ) ))
(let ((_n12 (ite (=  _n7  999)  _n9   _n11  ) ))
(let ((_n13 (not  _n12 ) ))
(let ((_n14 (or   _n13   _n8 ) ))
(let ((_n15 (ite  _n14   (ite  _n9  1 0)   _n1  ) ))
(let ((_n16 3 ))
(let ((_n17 (<   _n16   _n15 ) ))
(let ((_n18 (ite  _n14   _n9   _n17  ) ))
(let ((_n19 (or   _n18   _n14 ) ))
(let ((_n20 (not  _n19 ) ))
(let ((_n21 (+   _n1   (ite  _n20  1 0) ) ))
(let ((_n22 (not  _n18 ) ))
(let ((_n23 (or   _n22   _n14 ) ))
(let ((_n24 (not  _n23 ) ))
(let ((_n25 (+   _n1   (ite  _n24  1 0) ) ))
(let ((_n26 (ite (=  (ite  _n18  1 0)  1)  _n25   _n21  ) ))
(let ((_n27 (ite (=  (ite  _n12  1 0)  1)  _n26   _n1  ) ))
(let ((_n28 (ite (=  _n7  999)  _n6   (ite  _n9  1 0)  ) ))
(let ((_n29 1000 ))
(let ((_n30 (ite (=  _n7  999)  _n29   (ite  _n9  1 0)  ) ))
(let ((_n31 (+   _n30   _n28 ) ))
(let ((_n32 (ite (=  _n7  999)  _n31   (ite  _n9  1 0)  ) ))
(let ((_n33 (ite (=  _n7  999)  (ite  _n9  1 0)   _n1  ) ))
(let ((_n34 (+   _n33   _n32 ) ))
(let ((_n35 (ite (=  (ite  _n8  1 0)  1)  _n34   _n27  ) ))
(let ((_n36 (=   _n35   _n4 ) ))
(let ((_n38 (ite (=  _n1  999)  (ite  _n2  1 0)   _n0  ) ))
(let ((_n39 (ite (=  _n0  0)  _n38   _n0  ) ))
(let ((_n40 (+   _n0   (ite  _n24  1 0) ) ))
(let ((_n41 (ite (=  (ite  _n18  1 0)  1)  _n40   _n0  ) ))
(let ((_n42 (ite (=  (ite  _n12  1 0)  1)  _n41   _n0  ) ))
(let ((_n43 (+   _n28   (ite  _n8  1 0) ) ))
(let ((_n44 (ite (=  _n7  999)  _n43   (ite  _n9  1 0)  ) ))
(let ((_n45 (+   _n0   _n44 ) ))
(let ((_n46 (ite (=  (ite  _n8  1 0)  1)  _n45   _n42  ) ))
(let ((_n47 (=   _n46   _n39 ) ))
(implies  (and (and (>= state_group_0_state_1_6_8_0 0) (< state_group_0_state_1_6_8_0 1024 ))  (and (and (>= state_group_0_state_0_5_7_0 0) (< state_group_0_state_0_5_7_0 1024 ))  (and (>= pkt_0_4_6_0 0) (< pkt_0_4_6_0 1024 )) ) )   (and  _n36  _n47 )  ))))))))))))))))))))))))))))))))))))))))))))))))))
(check-sat)
(get-model)
(exit)